NAME : local_6
TYPE : ATSP
DIMENSION : 20
EDGE_WEIGHT_TYPE : EXPLICIT
EDGE_WEIGHT_FORMAT : FULL_MATRIX
EDGE_WEIGHT_SECTION
0 476 914 10000000 10000000 557 719 10000000 696 854 10000000 10000000 942 946 10000000 238 793 10000000 294 267 
0 0 622 964 10000000 10000000 10000000 10000000 660 10000000 10000000 10000000 736 10000000 10000000 702 10000000 10000000 379 694 
0 622 0 349 519 10000000 10000000 10000000 565 10000000 10000000 10000000 216 10000000 10000000 10000000 10000000 10000000 681 1051 
0 964 349 0 357 10000000 10000000 10000000 715 10000000 10000000 10000000 282 10000000 10000000 10000000 10000000 10000000 952 10000000 
0 10000000 519 357 0 10000000 10000000 10000000 10000000 10000000 10000000 10000000 585 10000000 10000000 10000000 10000000 10000000 10000000 10000000 
0 10000000 10000000 10000000 10000000 0 204 10000000 10000000 390 10000000 720 10000000 648 962 385 282 10000000 742 399 
0 10000000 10000000 10000000 10000000 204 0 10000000 10000000 223 10000000 522 10000000 645 988 573 144 10000000 942 551 
0 10000000 10000000 10000000 10000000 10000000 10000000 0 592 10000000 144 10000000 927 10000000 10000000 10000000 10000000 10000000 934 10000000 
0 660 565 715 10000000 10000000 10000000 592 0 10000000 728 10000000 444 10000000 10000000 880 10000000 10000000 447 834 
0 10000000 10000000 10000000 10000000 390 223 10000000 10000000 0 10000000 413 10000000 534 882 712 322 10000000 1035 646 
0 10000000 10000000 10000000 10000000 10000000 10000000 144 728 10000000 0 10000000 10000000 10000000 10000000 10000000 10000000 10000000 10000000 10000000 
0 10000000 10000000 10000000 10000000 720 522 10000000 10000000 413 10000000 0 10000000 902 10000000 10000000 497 10000000 10000000 974 
0 736 216 282 585 10000000 10000000 927 444 10000000 10000000 10000000 0 10000000 10000000 10000000 10000000 10000000 689 1083 
0 10000000 10000000 10000000 10000000 648 645 10000000 10000000 534 10000000 902 10000000 0 349 764 788 468 10000000 679 
0 10000000 10000000 10000000 10000000 962 988 10000000 10000000 882 10000000 10000000 10000000 349 0 1038 10000000 165 10000000 930 
0 677 10000000 10000000 10000000 385 573 10000000 880 712 10000000 10000000 10000000 764 1038 0 640 10000000 460 161 
0 10000000 10000000 10000000 10000000 282 144 10000000 10000000 322 10000000 497 10000000 788 10000000 640 0 10000000 997 635 
0 10000000 10000000 10000000 10000000 10000000 10000000 10000000 10000000 10000000 10000000 10000000 10000000 468 165 10000000 10000000 0 10000000 1014 
0 379 681 952 10000000 742 866 934 447 1006 10000000 10000000 689 10000000 10000000 460 967 10000000 0 399 
0 10000000 10000000 10000000 10000000 10000000 10000000 10000000 10000000 10000000 10000000 10000000 10000000 10000000 10000000 10000000 10000000 10000000 10000000 0 
EOF